p cnf 39 57
-10 39 0 
-13 22 0 
-9 33 0 
-35 5 9 14 0 
-20 12 0 
-2 32 0 
-1 32 0 
-13 38 0 
-3 25 0 
-31 8 15 0 
7 12 0 
-37 2 0 
-17 28 0 
-18 34 0 
-5 21 0 
-34 4 18 0 
-8 31 0 
-36 3 0 
-12 20 0 
-8 26 0 
-14 35 0 
-11 23 0 
-28 17 0 
-27 16 0 
-39 10 0 
-2 37 0 
-26 8 0 
-25 3 6 0 
-2 24 0 
-21 5 0 
-10 30 0 
-5 35 0 
-4 30 0 
-1 29 0 
-38 13 0 
-23 4 10 11 0 
-33 9 0 
-19 17 0 
-24 2 4 6 0 
-22 13 0 
-6 24 0 
-3 36 0 
4 12 0 
-4 24 0 
-29 1 4 0 
-9 35 0 
8 12 0 
-15 31 0 
-17 19 0 
-32 1 2 0 
-10 23 0 
-4 29 0 
-16 27 0 
-4 34 0 
-4 23 0 
-6 25 0 
-30 4 10 0 
